%%%mzn-stat: initTime=0.106241506
%%%mzn-stat: objective=235
%%%mzn-stat: nodes=21697
%%%mzn-stat: restarts=5
%%%mzn-stat: peakDepth=313
%%%mzn-stat: solveTime=6.085312748
%%%mzn-stat: variables=1147
%%%mzn-stat: propagators=838
%%%mzn-stat: failures=20141
%%%mzn-stat: propagations=1452568
%%%mzn-stat: nogoods=20141
%%%mzn-stat: AverageConflictSize=39.57593962563924
%%%mzn-stat: NumUnitNogoodsLearned=227
%%%mzn-stat: AverageLearnedNogoodLength=67.51477086539894
%%%mzn-stat: AverageBacktrackAmount=0
%%%mzn-stat: AverageLbd=21.815351770021348
%%%mzn-stat-end
maxleg = 235;
succ = array1d(1..50,[48, 4, 40, 9, 20, 35, 18, 37, 33, 3, 26, 38, 42, 50, 24, 11, 29, 13, 25, 36, 45, 30, 39, 23, 1, 7, 6, 12, 49, 41, 22, 16, 34, 28, 43, 47, 44, 14, 31, 46, 21, 5, 19, 2, 32, 8, 27, 17, 10, 15]);
% time elapsed: 18.24 s
----------
%%%mzn-stat: initTime=0.106241506
%%%mzn-stat: objective=228
%%%mzn-stat: nodes=21978
%%%mzn-stat: restarts=5
%%%mzn-stat: peakDepth=313
%%%mzn-stat: solveTime=6.090007118
%%%mzn-stat: variables=1147
%%%mzn-stat: propagators=838
%%%mzn-stat: failures=20141
%%%mzn-stat: propagations=1454240
%%%mzn-stat: nogoods=20141
%%%mzn-stat: AverageConflictSize=39.57593962563924
%%%mzn-stat: NumUnitNogoodsLearned=227
%%%mzn-stat: AverageLearnedNogoodLength=67.51477086539894
%%%mzn-stat: AverageBacktrackAmount=0
%%%mzn-stat: AverageLbd=21.815351770021348
%%%mzn-stat-end
maxleg = 228;
succ = array1d(1..50,[48, 4, 40, 9, 20, 35, 18, 37, 33, 3, 26, 38, 42, 50, 34, 11, 29, 13, 25, 36, 45, 30, 39, 23, 1, 7, 6, 12, 49, 41, 22, 16, 28, 24, 43, 47, 44, 14, 31, 46, 21, 5, 19, 2, 32, 8, 27, 17, 10, 15]);
% time elapsed: 18.25 s
----------
==========
% time elapsed: 18.25 s
%%%mzn-stat: initTime=0.106241506
%%%mzn-stat: objective=228
%%%mzn-stat: nodes=21978
%%%mzn-stat: restarts=5
%%%mzn-stat: peakDepth=313
%%%mzn-stat: solveTime=6.090011
%%%mzn-stat: variables=1147
%%%mzn-stat: propagators=838
%%%mzn-stat: failures=20141
%%%mzn-stat: propagations=1454240
%%%mzn-stat: nogoods=20141
%%%mzn-stat: AverageConflictSize=39.57593962563924
%%%mzn-stat: NumUnitNogoodsLearned=227
%%%mzn-stat: AverageLearnedNogoodLength=67.51477086539894
%%%mzn-stat: AverageBacktrackAmount=0
%%%mzn-stat: AverageLbd=21.815351770021348
%%%mzn-stat-end
